; Benchmark for LTL-sketching problem
(set-logic QF_UF)
(set-info :status unknown)
(declare-fun z_0_0_0 () Bool)
(declare-fun z_0_1_0 () Bool)
(declare-fun z_0_2_0 () Bool)
(declare-fun z_0_3_0 () Bool)
(declare-fun z_0_4_0 () Bool)
(declare-fun z_0_5_0 () Bool)
(declare-fun z_0_6_0 () Bool)
(declare-fun z_0_7_0 () Bool)
(declare-fun z_0_8_0 () Bool)
(declare-fun z_0_9_0 () Bool)
(declare-fun z_0_10_0 () Bool)
(declare-fun z_0_11_0 () Bool)
(declare-fun z_0_12_0 () Bool)
(declare-fun z_0_13_0 () Bool)
(declare-fun z_0_14_0 () Bool)
(declare-fun z_0_15_0 () Bool)
(declare-fun z_0_16_0 () Bool)
(declare-fun z_0_17_0 () Bool)
(declare-fun z_0_18_0 () Bool)
(declare-fun z_0_19_0 () Bool)
(declare-fun z_2_0_0 () Bool)
(declare-fun z_2_1_0 () Bool)
(declare-fun z_2_2_0 () Bool)
(declare-fun z_2_3_0 () Bool)
(declare-fun z_2_4_0 () Bool)
(declare-fun z_2_5_0 () Bool)
(declare-fun z_2_6_0 () Bool)
(declare-fun z_2_7_0 () Bool)
(declare-fun z_2_8_0 () Bool)
(declare-fun z_2_9_0 () Bool)
(declare-fun z_2_10_11 () Bool)
(declare-fun z_2_10_10 () Bool)
(declare-fun z_2_10_9 () Bool)
(declare-fun z_2_10_8 () Bool)
(declare-fun z_2_10_7 () Bool)
(declare-fun z_2_10_6 () Bool)
(declare-fun z_2_10_5 () Bool)
(declare-fun z_2_10_4 () Bool)
(declare-fun z_2_10_3 () Bool)
(declare-fun z_2_10_2 () Bool)
(declare-fun z_2_10_1 () Bool)
(declare-fun z_2_10_0 () Bool)
(declare-fun z_0_10_1 () Bool)
(declare-fun z_0_10_2 () Bool)
(declare-fun z_0_10_3 () Bool)
(declare-fun z_0_10_4 () Bool)
(declare-fun z_0_10_5 () Bool)
(declare-fun z_0_10_6 () Bool)
(declare-fun z_0_10_7 () Bool)
(declare-fun z_0_10_8 () Bool)
(declare-fun z_0_10_9 () Bool)
(declare-fun z_0_10_10 () Bool)
(declare-fun z_0_10_11 () Bool)
(declare-fun z_2_11_11 () Bool)
(declare-fun z_2_11_10 () Bool)
(declare-fun z_2_11_9 () Bool)
(declare-fun z_2_11_8 () Bool)
(declare-fun z_2_11_7 () Bool)
(declare-fun z_2_11_6 () Bool)
(declare-fun z_2_11_5 () Bool)
(declare-fun z_2_11_4 () Bool)
(declare-fun z_2_11_3 () Bool)
(declare-fun z_2_11_2 () Bool)
(declare-fun z_2_11_1 () Bool)
(declare-fun z_2_11_0 () Bool)
(declare-fun z_0_11_1 () Bool)
(declare-fun z_0_11_2 () Bool)
(declare-fun z_0_11_3 () Bool)
(declare-fun z_0_11_4 () Bool)
(declare-fun z_0_11_5 () Bool)
(declare-fun z_0_11_6 () Bool)
(declare-fun z_0_11_7 () Bool)
(declare-fun z_0_11_8 () Bool)
(declare-fun z_0_11_9 () Bool)
(declare-fun z_0_11_10 () Bool)
(declare-fun z_0_11_11 () Bool)
(declare-fun z_2_12_11 () Bool)
(declare-fun z_2_12_10 () Bool)
(declare-fun z_2_12_9 () Bool)
(declare-fun z_2_12_8 () Bool)
(declare-fun z_2_12_7 () Bool)
(declare-fun z_2_12_6 () Bool)
(declare-fun z_2_12_5 () Bool)
(declare-fun z_2_12_4 () Bool)
(declare-fun z_2_12_3 () Bool)
(declare-fun z_2_12_2 () Bool)
(declare-fun z_2_12_1 () Bool)
(declare-fun z_2_12_0 () Bool)
(declare-fun z_0_12_1 () Bool)
(declare-fun z_0_12_2 () Bool)
(declare-fun z_0_12_3 () Bool)
(declare-fun z_0_12_4 () Bool)
(declare-fun z_0_12_5 () Bool)
(declare-fun z_0_12_6 () Bool)
(declare-fun z_0_12_7 () Bool)
(declare-fun z_0_12_8 () Bool)
(declare-fun z_0_12_9 () Bool)
(declare-fun z_0_12_10 () Bool)
(declare-fun z_0_12_11 () Bool)
(declare-fun z_2_13_12 () Bool)
(declare-fun z_2_13_11 () Bool)
(declare-fun z_2_13_10 () Bool)
(declare-fun z_2_13_9 () Bool)
(declare-fun z_2_13_8 () Bool)
(declare-fun z_2_13_7 () Bool)
(declare-fun z_2_13_6 () Bool)
(declare-fun z_2_13_5 () Bool)
(declare-fun z_2_13_4 () Bool)
(declare-fun z_2_13_3 () Bool)
(declare-fun z_2_13_2 () Bool)
(declare-fun z_2_13_1 () Bool)
(declare-fun z_2_13_0 () Bool)
(declare-fun z_0_13_1 () Bool)
(declare-fun z_0_13_2 () Bool)
(declare-fun z_0_13_3 () Bool)
(declare-fun z_0_13_4 () Bool)
(declare-fun z_0_13_5 () Bool)
(declare-fun z_0_13_6 () Bool)
(declare-fun z_0_13_7 () Bool)
(declare-fun z_0_13_8 () Bool)
(declare-fun z_0_13_9 () Bool)
(declare-fun z_0_13_10 () Bool)
(declare-fun z_0_13_11 () Bool)
(declare-fun z_0_13_12 () Bool)
(declare-fun z_2_14_13 () Bool)
(declare-fun z_2_14_12 () Bool)
(declare-fun z_2_14_11 () Bool)
(declare-fun z_2_14_10 () Bool)
(declare-fun z_2_14_9 () Bool)
(declare-fun z_2_14_8 () Bool)
(declare-fun z_2_14_7 () Bool)
(declare-fun z_2_14_6 () Bool)
(declare-fun z_2_14_5 () Bool)
(declare-fun z_2_14_4 () Bool)
(declare-fun z_2_14_3 () Bool)
(declare-fun z_2_14_2 () Bool)
(declare-fun z_2_14_1 () Bool)
(declare-fun z_2_14_0 () Bool)
(declare-fun z_0_14_1 () Bool)
(declare-fun z_0_14_2 () Bool)
(declare-fun z_0_14_3 () Bool)
(declare-fun z_0_14_4 () Bool)
(declare-fun z_0_14_5 () Bool)
(declare-fun z_0_14_6 () Bool)
(declare-fun z_0_14_7 () Bool)
(declare-fun z_0_14_8 () Bool)
(declare-fun z_0_14_9 () Bool)
(declare-fun z_0_14_10 () Bool)
(declare-fun z_0_14_11 () Bool)
(declare-fun z_0_14_12 () Bool)
(declare-fun z_0_14_13 () Bool)
(declare-fun z_2_15_13 () Bool)
(declare-fun z_2_15_12 () Bool)
(declare-fun z_2_15_11 () Bool)
(declare-fun z_2_15_10 () Bool)
(declare-fun z_2_15_9 () Bool)
(declare-fun z_2_15_8 () Bool)
(declare-fun z_2_15_7 () Bool)
(declare-fun z_2_15_6 () Bool)
(declare-fun z_2_15_5 () Bool)
(declare-fun z_2_15_4 () Bool)
(declare-fun z_2_15_3 () Bool)
(declare-fun z_2_15_2 () Bool)
(declare-fun z_2_15_1 () Bool)
(declare-fun z_2_15_0 () Bool)
(declare-fun z_0_15_1 () Bool)
(declare-fun z_0_15_2 () Bool)
(declare-fun z_0_15_3 () Bool)
(declare-fun z_0_15_4 () Bool)
(declare-fun z_0_15_5 () Bool)
(declare-fun z_0_15_6 () Bool)
(declare-fun z_0_15_7 () Bool)
(declare-fun z_0_15_8 () Bool)
(declare-fun z_0_15_9 () Bool)
(declare-fun z_0_15_10 () Bool)
(declare-fun z_0_15_11 () Bool)
(declare-fun z_0_15_12 () Bool)
(declare-fun z_0_15_13 () Bool)
(declare-fun z_2_16_12 () Bool)
(declare-fun z_2_16_11 () Bool)
(declare-fun z_2_16_10 () Bool)
(declare-fun z_2_16_9 () Bool)
(declare-fun z_2_16_8 () Bool)
(declare-fun z_2_16_7 () Bool)
(declare-fun z_2_16_6 () Bool)
(declare-fun z_2_16_5 () Bool)
(declare-fun z_2_16_4 () Bool)
(declare-fun z_2_16_3 () Bool)
(declare-fun z_2_16_2 () Bool)
(declare-fun z_2_16_1 () Bool)
(declare-fun z_2_16_0 () Bool)
(declare-fun z_0_16_1 () Bool)
(declare-fun z_0_16_2 () Bool)
(declare-fun z_0_16_3 () Bool)
(declare-fun z_0_16_4 () Bool)
(declare-fun z_0_16_5 () Bool)
(declare-fun z_0_16_6 () Bool)
(declare-fun z_0_16_7 () Bool)
(declare-fun z_0_16_8 () Bool)
(declare-fun z_0_16_9 () Bool)
(declare-fun z_0_16_10 () Bool)
(declare-fun z_0_16_11 () Bool)
(declare-fun z_0_16_12 () Bool)
(declare-fun z_2_17_14 () Bool)
(declare-fun z_2_17_13 () Bool)
(declare-fun z_2_17_12 () Bool)
(declare-fun z_2_17_11 () Bool)
(declare-fun z_2_17_10 () Bool)
(declare-fun z_2_17_9 () Bool)
(declare-fun z_2_17_8 () Bool)
(declare-fun z_2_17_7 () Bool)
(declare-fun z_2_17_6 () Bool)
(declare-fun z_2_17_5 () Bool)
(declare-fun z_2_17_4 () Bool)
(declare-fun z_2_17_3 () Bool)
(declare-fun z_2_17_2 () Bool)
(declare-fun z_2_17_1 () Bool)
(declare-fun z_2_17_0 () Bool)
(declare-fun z_0_17_1 () Bool)
(declare-fun z_0_17_2 () Bool)
(declare-fun z_0_17_3 () Bool)
(declare-fun z_0_17_4 () Bool)
(declare-fun z_0_17_5 () Bool)
(declare-fun z_0_17_6 () Bool)
(declare-fun z_0_17_7 () Bool)
(declare-fun z_0_17_8 () Bool)
(declare-fun z_0_17_9 () Bool)
(declare-fun z_0_17_10 () Bool)
(declare-fun z_0_17_11 () Bool)
(declare-fun z_0_17_12 () Bool)
(declare-fun z_0_17_13 () Bool)
(declare-fun z_0_17_14 () Bool)
(declare-fun z_2_18_11 () Bool)
(declare-fun z_2_18_10 () Bool)
(declare-fun z_2_18_9 () Bool)
(declare-fun z_2_18_8 () Bool)
(declare-fun z_2_18_7 () Bool)
(declare-fun z_2_18_6 () Bool)
(declare-fun z_2_18_5 () Bool)
(declare-fun z_2_18_4 () Bool)
(declare-fun z_2_18_3 () Bool)
(declare-fun z_2_18_2 () Bool)
(declare-fun z_2_18_1 () Bool)
(declare-fun z_2_18_0 () Bool)
(declare-fun z_0_18_1 () Bool)
(declare-fun z_0_18_2 () Bool)
(declare-fun z_0_18_3 () Bool)
(declare-fun z_0_18_4 () Bool)
(declare-fun z_0_18_5 () Bool)
(declare-fun z_0_18_6 () Bool)
(declare-fun z_0_18_7 () Bool)
(declare-fun z_0_18_8 () Bool)
(declare-fun z_0_18_9 () Bool)
(declare-fun z_0_18_10 () Bool)
(declare-fun z_0_18_11 () Bool)
(declare-fun z_2_19_14 () Bool)
(declare-fun z_2_19_13 () Bool)
(declare-fun z_2_19_12 () Bool)
(declare-fun z_2_19_11 () Bool)
(declare-fun z_2_19_10 () Bool)
(declare-fun z_2_19_9 () Bool)
(declare-fun z_2_19_8 () Bool)
(declare-fun z_2_19_7 () Bool)
(declare-fun z_2_19_6 () Bool)
(declare-fun z_2_19_5 () Bool)
(declare-fun z_2_19_4 () Bool)
(declare-fun z_2_19_3 () Bool)
(declare-fun z_2_19_2 () Bool)
(declare-fun z_2_19_1 () Bool)
(declare-fun z_2_19_0 () Bool)
(declare-fun z_0_19_1 () Bool)
(declare-fun z_0_19_2 () Bool)
(declare-fun z_0_19_3 () Bool)
(declare-fun z_0_19_4 () Bool)
(declare-fun z_0_19_5 () Bool)
(declare-fun z_0_19_6 () Bool)
(declare-fun z_0_19_7 () Bool)
(declare-fun z_0_19_8 () Bool)
(declare-fun z_0_19_9 () Bool)
(declare-fun z_0_19_10 () Bool)
(declare-fun z_0_19_11 () Bool)
(declare-fun z_0_19_12 () Bool)
(declare-fun z_0_19_13 () Bool)
(declare-fun z_0_19_14 () Bool)
(declare-fun x_2_p () Bool)
(declare-fun x_2_-> () Bool)
(declare-fun x_2_U () Bool)
(declare-fun x_2_v () Bool)
(declare-fun x_2_& () Bool)
(declare-fun x_2_X () Bool)
(declare-fun x_2_! () Bool)
(declare-fun x_2_F () Bool)
(declare-fun x_2_G () Bool)
(assert
 (= z_0_0_0 true))
(assert
 (= z_0_1_0 true))
(assert
 (= z_0_2_0 true))
(assert
 (= z_0_3_0 true))
(assert
 (= z_0_4_0 true))
(assert
 (= z_0_5_0 true))
(assert
 (= z_0_6_0 true))
(assert
 (= z_0_7_0 true))
(assert
 (= z_0_8_0 true))
(assert
 (= z_0_9_0 true))
(assert
 (= z_0_10_0 false))
(assert
 (= z_0_11_0 false))
(assert
 (= z_0_12_0 false))
(assert
 (= z_0_13_0 false))
(assert
 (= z_0_14_0 false))
(assert
 (= z_0_15_0 false))
(assert
 (= z_0_16_0 false))
(assert
 (= z_0_17_0 false))
(assert
 (= z_0_18_0 false))
(assert
 (= z_0_19_0 false))
(assert
 (= z_0_0_0 (and z_2_0_0)))
(assert
 (= z_0_1_0 (and z_2_1_0)))
(assert
 (= z_0_2_0 (and z_2_2_0)))
(assert
 (= z_0_3_0 (and z_2_3_0)))
(assert
 (= z_0_4_0 (and z_2_4_0)))
(assert
 (= z_0_5_0 (and z_2_5_0)))
(assert
 (= z_0_6_0 (and z_2_6_0)))
(assert
 (= z_0_7_0 (and z_2_7_0)))
(assert
 (= z_0_8_0 (and z_2_8_0)))
(assert
 (= z_0_9_0 (and z_2_9_0)))
(assert
 (let (($x3192 (and z_2_10_0 z_2_10_1 z_2_10_2 z_2_10_3 z_2_10_4 z_2_10_5 z_2_10_6 z_2_10_7 z_2_10_8 z_2_10_9 z_2_10_10 z_2_10_11)))
 (= z_0_10_0 $x3192)))
(assert
 (let (($x3194 (and z_2_10_1 z_2_10_2 z_2_10_3 z_2_10_4 z_2_10_5 z_2_10_6 z_2_10_7 z_2_10_8 z_2_10_9 z_2_10_10 z_2_10_11)))
 (= z_0_10_1 $x3194)))
(assert
 (let (($x3196 (and z_2_10_2 z_2_10_3 z_2_10_4 z_2_10_5 z_2_10_6 z_2_10_7 z_2_10_8 z_2_10_9 z_2_10_10 z_2_10_11)))
 (= z_0_10_2 $x3196)))
(assert
 (let (($x3198 (and z_2_10_3 z_2_10_4 z_2_10_5 z_2_10_6 z_2_10_7 z_2_10_8 z_2_10_9 z_2_10_10 z_2_10_11)))
 (= z_0_10_3 $x3198)))
(assert
 (let (($x3200 (and z_2_10_4 z_2_10_5 z_2_10_6 z_2_10_7 z_2_10_8 z_2_10_9 z_2_10_10 z_2_10_11)))
 (= z_0_10_4 $x3200)))
(assert
 (let (($x3202 (and z_2_10_5 z_2_10_6 z_2_10_7 z_2_10_8 z_2_10_9 z_2_10_10 z_2_10_11)))
 (= z_0_10_5 $x3202)))
(assert
 (let (($x3202 (and z_2_10_5 z_2_10_6 z_2_10_7 z_2_10_8 z_2_10_9 z_2_10_10 z_2_10_11)))
 (= z_0_10_6 $x3202)))
(assert
 (let (($x3202 (and z_2_10_5 z_2_10_6 z_2_10_7 z_2_10_8 z_2_10_9 z_2_10_10 z_2_10_11)))
 (= z_0_10_7 $x3202)))
(assert
 (let (($x3202 (and z_2_10_5 z_2_10_6 z_2_10_7 z_2_10_8 z_2_10_9 z_2_10_10 z_2_10_11)))
 (= z_0_10_8 $x3202)))
(assert
 (let (($x3202 (and z_2_10_5 z_2_10_6 z_2_10_7 z_2_10_8 z_2_10_9 z_2_10_10 z_2_10_11)))
 (= z_0_10_9 $x3202)))
(assert
 (let (($x3202 (and z_2_10_5 z_2_10_6 z_2_10_7 z_2_10_8 z_2_10_9 z_2_10_10 z_2_10_11)))
 (= z_0_10_10 $x3202)))
(assert
 (let (($x3202 (and z_2_10_5 z_2_10_6 z_2_10_7 z_2_10_8 z_2_10_9 z_2_10_10 z_2_10_11)))
 (= z_0_10_11 $x3202)))
(assert
 (let (($x3222 (and z_2_11_0 z_2_11_1 z_2_11_2 z_2_11_3 z_2_11_4 z_2_11_5 z_2_11_6 z_2_11_7 z_2_11_8 z_2_11_9 z_2_11_10 z_2_11_11)))
 (= z_0_11_0 $x3222)))
(assert
 (let (($x3224 (and z_2_11_1 z_2_11_2 z_2_11_3 z_2_11_4 z_2_11_5 z_2_11_6 z_2_11_7 z_2_11_8 z_2_11_9 z_2_11_10 z_2_11_11)))
 (= z_0_11_1 $x3224)))
(assert
 (let (($x3226 (and z_2_11_2 z_2_11_3 z_2_11_4 z_2_11_5 z_2_11_6 z_2_11_7 z_2_11_8 z_2_11_9 z_2_11_10 z_2_11_11)))
 (= z_0_11_2 $x3226)))
(assert
 (let (($x3228 (and z_2_11_3 z_2_11_4 z_2_11_5 z_2_11_6 z_2_11_7 z_2_11_8 z_2_11_9 z_2_11_10 z_2_11_11)))
 (= z_0_11_3 $x3228)))
(assert
 (let (($x3230 (and z_2_11_4 z_2_11_5 z_2_11_6 z_2_11_7 z_2_11_8 z_2_11_9 z_2_11_10 z_2_11_11)))
 (= z_0_11_4 $x3230)))
(assert
 (let (($x3232 (and z_2_11_5 z_2_11_6 z_2_11_7 z_2_11_8 z_2_11_9 z_2_11_10 z_2_11_11)))
 (= z_0_11_5 $x3232)))
(assert
 (let (($x3234 (and z_2_11_6 z_2_11_7 z_2_11_8 z_2_11_9 z_2_11_10 z_2_11_11)))
 (= z_0_11_6 $x3234)))
(assert
 (let (($x3234 (and z_2_11_6 z_2_11_7 z_2_11_8 z_2_11_9 z_2_11_10 z_2_11_11)))
 (= z_0_11_7 $x3234)))
(assert
 (let (($x3234 (and z_2_11_6 z_2_11_7 z_2_11_8 z_2_11_9 z_2_11_10 z_2_11_11)))
 (= z_0_11_8 $x3234)))
(assert
 (let (($x3234 (and z_2_11_6 z_2_11_7 z_2_11_8 z_2_11_9 z_2_11_10 z_2_11_11)))
 (= z_0_11_9 $x3234)))
(assert
 (let (($x3234 (and z_2_11_6 z_2_11_7 z_2_11_8 z_2_11_9 z_2_11_10 z_2_11_11)))
 (= z_0_11_10 $x3234)))
(assert
 (let (($x3234 (and z_2_11_6 z_2_11_7 z_2_11_8 z_2_11_9 z_2_11_10 z_2_11_11)))
 (= z_0_11_11 $x3234)))
(assert
 (let (($x3253 (and z_2_12_0 z_2_12_1 z_2_12_2 z_2_12_3 z_2_12_4 z_2_12_5 z_2_12_6 z_2_12_7 z_2_12_8 z_2_12_9 z_2_12_10 z_2_12_11)))
 (= z_0_12_0 $x3253)))
(assert
 (let (($x3255 (and z_2_12_1 z_2_12_2 z_2_12_3 z_2_12_4 z_2_12_5 z_2_12_6 z_2_12_7 z_2_12_8 z_2_12_9 z_2_12_10 z_2_12_11)))
 (= z_0_12_1 $x3255)))
(assert
 (let (($x3257 (and z_2_12_2 z_2_12_3 z_2_12_4 z_2_12_5 z_2_12_6 z_2_12_7 z_2_12_8 z_2_12_9 z_2_12_10 z_2_12_11)))
 (= z_0_12_2 $x3257)))
(assert
 (let (($x3259 (and z_2_12_3 z_2_12_4 z_2_12_5 z_2_12_6 z_2_12_7 z_2_12_8 z_2_12_9 z_2_12_10 z_2_12_11)))
 (= z_0_12_3 $x3259)))
(assert
 (let (($x3261 (and z_2_12_4 z_2_12_5 z_2_12_6 z_2_12_7 z_2_12_8 z_2_12_9 z_2_12_10 z_2_12_11)))
 (= z_0_12_4 $x3261)))
(assert
 (let (($x3261 (and z_2_12_4 z_2_12_5 z_2_12_6 z_2_12_7 z_2_12_8 z_2_12_9 z_2_12_10 z_2_12_11)))
 (= z_0_12_5 $x3261)))
(assert
 (let (($x3261 (and z_2_12_4 z_2_12_5 z_2_12_6 z_2_12_7 z_2_12_8 z_2_12_9 z_2_12_10 z_2_12_11)))
 (= z_0_12_6 $x3261)))
(assert
 (let (($x3261 (and z_2_12_4 z_2_12_5 z_2_12_6 z_2_12_7 z_2_12_8 z_2_12_9 z_2_12_10 z_2_12_11)))
 (= z_0_12_7 $x3261)))
(assert
 (let (($x3261 (and z_2_12_4 z_2_12_5 z_2_12_6 z_2_12_7 z_2_12_8 z_2_12_9 z_2_12_10 z_2_12_11)))
 (= z_0_12_8 $x3261)))
(assert
 (let (($x3261 (and z_2_12_4 z_2_12_5 z_2_12_6 z_2_12_7 z_2_12_8 z_2_12_9 z_2_12_10 z_2_12_11)))
 (= z_0_12_9 $x3261)))
(assert
 (let (($x3261 (and z_2_12_4 z_2_12_5 z_2_12_6 z_2_12_7 z_2_12_8 z_2_12_9 z_2_12_10 z_2_12_11)))
 (= z_0_12_10 $x3261)))
(assert
 (let (($x3261 (and z_2_12_4 z_2_12_5 z_2_12_6 z_2_12_7 z_2_12_8 z_2_12_9 z_2_12_10 z_2_12_11)))
 (= z_0_12_11 $x3261)))
(assert
 (let (($x3283 (and z_2_13_0 z_2_13_1 z_2_13_2 z_2_13_3 z_2_13_4 z_2_13_5 z_2_13_6 z_2_13_7 z_2_13_8 z_2_13_9 z_2_13_10 z_2_13_11 z_2_13_12)))
 (= z_0_13_0 $x3283)))
(assert
 (let (($x3285 (and z_2_13_1 z_2_13_2 z_2_13_3 z_2_13_4 z_2_13_5 z_2_13_6 z_2_13_7 z_2_13_8 z_2_13_9 z_2_13_10 z_2_13_11 z_2_13_12)))
 (= z_0_13_1 $x3285)))
(assert
 (let (($x3287 (and z_2_13_2 z_2_13_3 z_2_13_4 z_2_13_5 z_2_13_6 z_2_13_7 z_2_13_8 z_2_13_9 z_2_13_10 z_2_13_11 z_2_13_12)))
 (= z_0_13_2 $x3287)))
(assert
 (let (($x3289 (and z_2_13_3 z_2_13_4 z_2_13_5 z_2_13_6 z_2_13_7 z_2_13_8 z_2_13_9 z_2_13_10 z_2_13_11 z_2_13_12)))
 (= z_0_13_3 $x3289)))
(assert
 (let (($x3291 (and z_2_13_4 z_2_13_5 z_2_13_6 z_2_13_7 z_2_13_8 z_2_13_9 z_2_13_10 z_2_13_11 z_2_13_12)))
 (= z_0_13_4 $x3291)))
(assert
 (let (($x3293 (and z_2_13_5 z_2_13_6 z_2_13_7 z_2_13_8 z_2_13_9 z_2_13_10 z_2_13_11 z_2_13_12)))
 (= z_0_13_5 $x3293)))
(assert
 (let (($x3293 (and z_2_13_5 z_2_13_6 z_2_13_7 z_2_13_8 z_2_13_9 z_2_13_10 z_2_13_11 z_2_13_12)))
 (= z_0_13_6 $x3293)))
(assert
 (let (($x3293 (and z_2_13_5 z_2_13_6 z_2_13_7 z_2_13_8 z_2_13_9 z_2_13_10 z_2_13_11 z_2_13_12)))
 (= z_0_13_7 $x3293)))
(assert
 (let (($x3293 (and z_2_13_5 z_2_13_6 z_2_13_7 z_2_13_8 z_2_13_9 z_2_13_10 z_2_13_11 z_2_13_12)))
 (= z_0_13_8 $x3293)))
(assert
 (let (($x3293 (and z_2_13_5 z_2_13_6 z_2_13_7 z_2_13_8 z_2_13_9 z_2_13_10 z_2_13_11 z_2_13_12)))
 (= z_0_13_9 $x3293)))
(assert
 (let (($x3293 (and z_2_13_5 z_2_13_6 z_2_13_7 z_2_13_8 z_2_13_9 z_2_13_10 z_2_13_11 z_2_13_12)))
 (= z_0_13_10 $x3293)))
(assert
 (let (($x3293 (and z_2_13_5 z_2_13_6 z_2_13_7 z_2_13_8 z_2_13_9 z_2_13_10 z_2_13_11 z_2_13_12)))
 (= z_0_13_11 $x3293)))
(assert
 (let (($x3293 (and z_2_13_5 z_2_13_6 z_2_13_7 z_2_13_8 z_2_13_9 z_2_13_10 z_2_13_11 z_2_13_12)))
 (= z_0_13_12 $x3293)))
(assert
 (let (($x3316 (and z_2_14_0 z_2_14_1 z_2_14_2 z_2_14_3 z_2_14_4 z_2_14_5 z_2_14_6 z_2_14_7 z_2_14_8 z_2_14_9 z_2_14_10 z_2_14_11 z_2_14_12 z_2_14_13)))
 (= z_0_14_0 $x3316)))
(assert
 (let (($x3318 (and z_2_14_1 z_2_14_2 z_2_14_3 z_2_14_4 z_2_14_5 z_2_14_6 z_2_14_7 z_2_14_8 z_2_14_9 z_2_14_10 z_2_14_11 z_2_14_12 z_2_14_13)))
 (= z_0_14_1 $x3318)))
(assert
 (let (($x3320 (and z_2_14_2 z_2_14_3 z_2_14_4 z_2_14_5 z_2_14_6 z_2_14_7 z_2_14_8 z_2_14_9 z_2_14_10 z_2_14_11 z_2_14_12 z_2_14_13)))
 (= z_0_14_2 $x3320)))
(assert
 (let (($x3322 (and z_2_14_3 z_2_14_4 z_2_14_5 z_2_14_6 z_2_14_7 z_2_14_8 z_2_14_9 z_2_14_10 z_2_14_11 z_2_14_12 z_2_14_13)))
 (= z_0_14_3 $x3322)))
(assert
 (let (($x3324 (and z_2_14_4 z_2_14_5 z_2_14_6 z_2_14_7 z_2_14_8 z_2_14_9 z_2_14_10 z_2_14_11 z_2_14_12 z_2_14_13)))
 (= z_0_14_4 $x3324)))
(assert
 (let (($x3326 (and z_2_14_5 z_2_14_6 z_2_14_7 z_2_14_8 z_2_14_9 z_2_14_10 z_2_14_11 z_2_14_12 z_2_14_13)))
 (= z_0_14_5 $x3326)))
(assert
 (let (($x3328 (and z_2_14_6 z_2_14_7 z_2_14_8 z_2_14_9 z_2_14_10 z_2_14_11 z_2_14_12 z_2_14_13)))
 (= z_0_14_6 $x3328)))
(assert
 (let (($x3328 (and z_2_14_6 z_2_14_7 z_2_14_8 z_2_14_9 z_2_14_10 z_2_14_11 z_2_14_12 z_2_14_13)))
 (= z_0_14_7 $x3328)))
(assert
 (let (($x3328 (and z_2_14_6 z_2_14_7 z_2_14_8 z_2_14_9 z_2_14_10 z_2_14_11 z_2_14_12 z_2_14_13)))
 (= z_0_14_8 $x3328)))
(assert
 (let (($x3328 (and z_2_14_6 z_2_14_7 z_2_14_8 z_2_14_9 z_2_14_10 z_2_14_11 z_2_14_12 z_2_14_13)))
 (= z_0_14_9 $x3328)))
(assert
 (let (($x3328 (and z_2_14_6 z_2_14_7 z_2_14_8 z_2_14_9 z_2_14_10 z_2_14_11 z_2_14_12 z_2_14_13)))
 (= z_0_14_10 $x3328)))
(assert
 (let (($x3328 (and z_2_14_6 z_2_14_7 z_2_14_8 z_2_14_9 z_2_14_10 z_2_14_11 z_2_14_12 z_2_14_13)))
 (= z_0_14_11 $x3328)))
(assert
 (let (($x3328 (and z_2_14_6 z_2_14_7 z_2_14_8 z_2_14_9 z_2_14_10 z_2_14_11 z_2_14_12 z_2_14_13)))
 (= z_0_14_12 $x3328)))
(assert
 (let (($x3328 (and z_2_14_6 z_2_14_7 z_2_14_8 z_2_14_9 z_2_14_10 z_2_14_11 z_2_14_12 z_2_14_13)))
 (= z_0_14_13 $x3328)))
(assert
 (let (($x3351 (and z_2_15_0 z_2_15_1 z_2_15_2 z_2_15_3 z_2_15_4 z_2_15_5 z_2_15_6 z_2_15_7 z_2_15_8 z_2_15_9 z_2_15_10 z_2_15_11 z_2_15_12 z_2_15_13)))
 (= z_0_15_0 $x3351)))
(assert
 (let (($x3353 (and z_2_15_1 z_2_15_2 z_2_15_3 z_2_15_4 z_2_15_5 z_2_15_6 z_2_15_7 z_2_15_8 z_2_15_9 z_2_15_10 z_2_15_11 z_2_15_12 z_2_15_13)))
 (= z_0_15_1 $x3353)))
(assert
 (let (($x3355 (and z_2_15_2 z_2_15_3 z_2_15_4 z_2_15_5 z_2_15_6 z_2_15_7 z_2_15_8 z_2_15_9 z_2_15_10 z_2_15_11 z_2_15_12 z_2_15_13)))
 (= z_0_15_2 $x3355)))
(assert
 (let (($x3357 (and z_2_15_3 z_2_15_4 z_2_15_5 z_2_15_6 z_2_15_7 z_2_15_8 z_2_15_9 z_2_15_10 z_2_15_11 z_2_15_12 z_2_15_13)))
 (= z_0_15_3 $x3357)))
(assert
 (let (($x3359 (and z_2_15_4 z_2_15_5 z_2_15_6 z_2_15_7 z_2_15_8 z_2_15_9 z_2_15_10 z_2_15_11 z_2_15_12 z_2_15_13)))
 (= z_0_15_4 $x3359)))
(assert
 (let (($x3361 (and z_2_15_5 z_2_15_6 z_2_15_7 z_2_15_8 z_2_15_9 z_2_15_10 z_2_15_11 z_2_15_12 z_2_15_13)))
 (= z_0_15_5 $x3361)))
(assert
 (let (($x3363 (and z_2_15_6 z_2_15_7 z_2_15_8 z_2_15_9 z_2_15_10 z_2_15_11 z_2_15_12 z_2_15_13)))
 (= z_0_15_6 $x3363)))
(assert
 (let (($x3363 (and z_2_15_6 z_2_15_7 z_2_15_8 z_2_15_9 z_2_15_10 z_2_15_11 z_2_15_12 z_2_15_13)))
 (= z_0_15_7 $x3363)))
(assert
 (let (($x3363 (and z_2_15_6 z_2_15_7 z_2_15_8 z_2_15_9 z_2_15_10 z_2_15_11 z_2_15_12 z_2_15_13)))
 (= z_0_15_8 $x3363)))
(assert
 (let (($x3363 (and z_2_15_6 z_2_15_7 z_2_15_8 z_2_15_9 z_2_15_10 z_2_15_11 z_2_15_12 z_2_15_13)))
 (= z_0_15_9 $x3363)))
(assert
 (let (($x3363 (and z_2_15_6 z_2_15_7 z_2_15_8 z_2_15_9 z_2_15_10 z_2_15_11 z_2_15_12 z_2_15_13)))
 (= z_0_15_10 $x3363)))
(assert
 (let (($x3363 (and z_2_15_6 z_2_15_7 z_2_15_8 z_2_15_9 z_2_15_10 z_2_15_11 z_2_15_12 z_2_15_13)))
 (= z_0_15_11 $x3363)))
(assert
 (let (($x3363 (and z_2_15_6 z_2_15_7 z_2_15_8 z_2_15_9 z_2_15_10 z_2_15_11 z_2_15_12 z_2_15_13)))
 (= z_0_15_12 $x3363)))
(assert
 (let (($x3363 (and z_2_15_6 z_2_15_7 z_2_15_8 z_2_15_9 z_2_15_10 z_2_15_11 z_2_15_12 z_2_15_13)))
 (= z_0_15_13 $x3363)))
(assert
 (let (($x3385 (and z_2_16_0 z_2_16_1 z_2_16_2 z_2_16_3 z_2_16_4 z_2_16_5 z_2_16_6 z_2_16_7 z_2_16_8 z_2_16_9 z_2_16_10 z_2_16_11 z_2_16_12)))
 (= z_0_16_0 $x3385)))
(assert
 (let (($x3387 (and z_2_16_1 z_2_16_2 z_2_16_3 z_2_16_4 z_2_16_5 z_2_16_6 z_2_16_7 z_2_16_8 z_2_16_9 z_2_16_10 z_2_16_11 z_2_16_12)))
 (= z_0_16_1 $x3387)))
(assert
 (let (($x3389 (and z_2_16_2 z_2_16_3 z_2_16_4 z_2_16_5 z_2_16_6 z_2_16_7 z_2_16_8 z_2_16_9 z_2_16_10 z_2_16_11 z_2_16_12)))
 (= z_0_16_2 $x3389)))
(assert
 (let (($x3391 (and z_2_16_3 z_2_16_4 z_2_16_5 z_2_16_6 z_2_16_7 z_2_16_8 z_2_16_9 z_2_16_10 z_2_16_11 z_2_16_12)))
 (= z_0_16_3 $x3391)))
(assert
 (let (($x3393 (and z_2_16_4 z_2_16_5 z_2_16_6 z_2_16_7 z_2_16_8 z_2_16_9 z_2_16_10 z_2_16_11 z_2_16_12)))
 (= z_0_16_4 $x3393)))
(assert
 (let (($x3395 (and z_2_16_5 z_2_16_6 z_2_16_7 z_2_16_8 z_2_16_9 z_2_16_10 z_2_16_11 z_2_16_12)))
 (= z_0_16_5 $x3395)))
(assert
 (let (($x3397 (and z_2_16_6 z_2_16_7 z_2_16_8 z_2_16_9 z_2_16_10 z_2_16_11 z_2_16_12)))
 (= z_0_16_6 $x3397)))
(assert
 (let (($x3399 (and z_2_16_7 z_2_16_8 z_2_16_9 z_2_16_10 z_2_16_11 z_2_16_12)))
 (= z_0_16_7 $x3399)))
(assert
 (let (($x3399 (and z_2_16_7 z_2_16_8 z_2_16_9 z_2_16_10 z_2_16_11 z_2_16_12)))
 (= z_0_16_8 $x3399)))
(assert
 (let (($x3399 (and z_2_16_7 z_2_16_8 z_2_16_9 z_2_16_10 z_2_16_11 z_2_16_12)))
 (= z_0_16_9 $x3399)))
(assert
 (let (($x3399 (and z_2_16_7 z_2_16_8 z_2_16_9 z_2_16_10 z_2_16_11 z_2_16_12)))
 (= z_0_16_10 $x3399)))
(assert
 (let (($x3399 (and z_2_16_7 z_2_16_8 z_2_16_9 z_2_16_10 z_2_16_11 z_2_16_12)))
 (= z_0_16_11 $x3399)))
(assert
 (let (($x3399 (and z_2_16_7 z_2_16_8 z_2_16_9 z_2_16_10 z_2_16_11 z_2_16_12)))
 (= z_0_16_12 $x3399)))
(assert
 (let (($x3421 (and z_2_17_0 z_2_17_1 z_2_17_2 z_2_17_3 z_2_17_4 z_2_17_5 z_2_17_6 z_2_17_7 z_2_17_8 z_2_17_9 z_2_17_10 z_2_17_11 z_2_17_12 z_2_17_13 z_2_17_14)))
 (= z_0_17_0 $x3421)))
(assert
 (let (($x3423 (and z_2_17_1 z_2_17_2 z_2_17_3 z_2_17_4 z_2_17_5 z_2_17_6 z_2_17_7 z_2_17_8 z_2_17_9 z_2_17_10 z_2_17_11 z_2_17_12 z_2_17_13 z_2_17_14)))
 (= z_0_17_1 $x3423)))
(assert
 (let (($x3425 (and z_2_17_2 z_2_17_3 z_2_17_4 z_2_17_5 z_2_17_6 z_2_17_7 z_2_17_8 z_2_17_9 z_2_17_10 z_2_17_11 z_2_17_12 z_2_17_13 z_2_17_14)))
 (= z_0_17_2 $x3425)))
(assert
 (let (($x3427 (and z_2_17_3 z_2_17_4 z_2_17_5 z_2_17_6 z_2_17_7 z_2_17_8 z_2_17_9 z_2_17_10 z_2_17_11 z_2_17_12 z_2_17_13 z_2_17_14)))
 (= z_0_17_3 $x3427)))
(assert
 (let (($x3429 (and z_2_17_4 z_2_17_5 z_2_17_6 z_2_17_7 z_2_17_8 z_2_17_9 z_2_17_10 z_2_17_11 z_2_17_12 z_2_17_13 z_2_17_14)))
 (= z_0_17_4 $x3429)))
(assert
 (let (($x3431 (and z_2_17_5 z_2_17_6 z_2_17_7 z_2_17_8 z_2_17_9 z_2_17_10 z_2_17_11 z_2_17_12 z_2_17_13 z_2_17_14)))
 (= z_0_17_5 $x3431)))
(assert
 (let (($x3433 (and z_2_17_6 z_2_17_7 z_2_17_8 z_2_17_9 z_2_17_10 z_2_17_11 z_2_17_12 z_2_17_13 z_2_17_14)))
 (= z_0_17_6 $x3433)))
(assert
 (let (($x3435 (and z_2_17_7 z_2_17_8 z_2_17_9 z_2_17_10 z_2_17_11 z_2_17_12 z_2_17_13 z_2_17_14)))
 (= z_0_17_7 $x3435)))
(assert
 (let (($x3435 (and z_2_17_7 z_2_17_8 z_2_17_9 z_2_17_10 z_2_17_11 z_2_17_12 z_2_17_13 z_2_17_14)))
 (= z_0_17_8 $x3435)))
(assert
 (let (($x3435 (and z_2_17_7 z_2_17_8 z_2_17_9 z_2_17_10 z_2_17_11 z_2_17_12 z_2_17_13 z_2_17_14)))
 (= z_0_17_9 $x3435)))
(assert
 (let (($x3435 (and z_2_17_7 z_2_17_8 z_2_17_9 z_2_17_10 z_2_17_11 z_2_17_12 z_2_17_13 z_2_17_14)))
 (= z_0_17_10 $x3435)))
(assert
 (let (($x3435 (and z_2_17_7 z_2_17_8 z_2_17_9 z_2_17_10 z_2_17_11 z_2_17_12 z_2_17_13 z_2_17_14)))
 (= z_0_17_11 $x3435)))
(assert
 (let (($x3435 (and z_2_17_7 z_2_17_8 z_2_17_9 z_2_17_10 z_2_17_11 z_2_17_12 z_2_17_13 z_2_17_14)))
 (= z_0_17_12 $x3435)))
(assert
 (let (($x3435 (and z_2_17_7 z_2_17_8 z_2_17_9 z_2_17_10 z_2_17_11 z_2_17_12 z_2_17_13 z_2_17_14)))
 (= z_0_17_13 $x3435)))
(assert
 (let (($x3435 (and z_2_17_7 z_2_17_8 z_2_17_9 z_2_17_10 z_2_17_11 z_2_17_12 z_2_17_13 z_2_17_14)))
 (= z_0_17_14 $x3435)))
(assert
 (let (($x3456 (and z_2_18_0 z_2_18_1 z_2_18_2 z_2_18_3 z_2_18_4 z_2_18_5 z_2_18_6 z_2_18_7 z_2_18_8 z_2_18_9 z_2_18_10 z_2_18_11)))
 (= z_0_18_0 $x3456)))
(assert
 (let (($x3458 (and z_2_18_1 z_2_18_2 z_2_18_3 z_2_18_4 z_2_18_5 z_2_18_6 z_2_18_7 z_2_18_8 z_2_18_9 z_2_18_10 z_2_18_11)))
 (= z_0_18_1 $x3458)))
(assert
 (let (($x3460 (and z_2_18_2 z_2_18_3 z_2_18_4 z_2_18_5 z_2_18_6 z_2_18_7 z_2_18_8 z_2_18_9 z_2_18_10 z_2_18_11)))
 (= z_0_18_2 $x3460)))
(assert
 (let (($x3462 (and z_2_18_3 z_2_18_4 z_2_18_5 z_2_18_6 z_2_18_7 z_2_18_8 z_2_18_9 z_2_18_10 z_2_18_11)))
 (= z_0_18_3 $x3462)))
(assert
 (let (($x3464 (and z_2_18_4 z_2_18_5 z_2_18_6 z_2_18_7 z_2_18_8 z_2_18_9 z_2_18_10 z_2_18_11)))
 (= z_0_18_4 $x3464)))
(assert
 (let (($x3466 (and z_2_18_5 z_2_18_6 z_2_18_7 z_2_18_8 z_2_18_9 z_2_18_10 z_2_18_11)))
 (= z_0_18_5 $x3466)))
(assert
 (let (($x3468 (and z_2_18_6 z_2_18_7 z_2_18_8 z_2_18_9 z_2_18_10 z_2_18_11)))
 (= z_0_18_6 $x3468)))
(assert
 (let (($x3468 (and z_2_18_6 z_2_18_7 z_2_18_8 z_2_18_9 z_2_18_10 z_2_18_11)))
 (= z_0_18_7 $x3468)))
(assert
 (let (($x3468 (and z_2_18_6 z_2_18_7 z_2_18_8 z_2_18_9 z_2_18_10 z_2_18_11)))
 (= z_0_18_8 $x3468)))
(assert
 (let (($x3468 (and z_2_18_6 z_2_18_7 z_2_18_8 z_2_18_9 z_2_18_10 z_2_18_11)))
 (= z_0_18_9 $x3468)))
(assert
 (let (($x3468 (and z_2_18_6 z_2_18_7 z_2_18_8 z_2_18_9 z_2_18_10 z_2_18_11)))
 (= z_0_18_10 $x3468)))
(assert
 (let (($x3468 (and z_2_18_6 z_2_18_7 z_2_18_8 z_2_18_9 z_2_18_10 z_2_18_11)))
 (= z_0_18_11 $x3468)))
(assert
 (let (($x3490 (and z_2_19_0 z_2_19_1 z_2_19_2 z_2_19_3 z_2_19_4 z_2_19_5 z_2_19_6 z_2_19_7 z_2_19_8 z_2_19_9 z_2_19_10 z_2_19_11 z_2_19_12 z_2_19_13 z_2_19_14)))
 (= z_0_19_0 $x3490)))
(assert
 (let (($x3492 (and z_2_19_1 z_2_19_2 z_2_19_3 z_2_19_4 z_2_19_5 z_2_19_6 z_2_19_7 z_2_19_8 z_2_19_9 z_2_19_10 z_2_19_11 z_2_19_12 z_2_19_13 z_2_19_14)))
 (= z_0_19_1 $x3492)))
(assert
 (let (($x3494 (and z_2_19_2 z_2_19_3 z_2_19_4 z_2_19_5 z_2_19_6 z_2_19_7 z_2_19_8 z_2_19_9 z_2_19_10 z_2_19_11 z_2_19_12 z_2_19_13 z_2_19_14)))
 (= z_0_19_2 $x3494)))
(assert
 (let (($x3496 (and z_2_19_3 z_2_19_4 z_2_19_5 z_2_19_6 z_2_19_7 z_2_19_8 z_2_19_9 z_2_19_10 z_2_19_11 z_2_19_12 z_2_19_13 z_2_19_14)))
 (= z_0_19_3 $x3496)))
(assert
 (let (($x3498 (and z_2_19_4 z_2_19_5 z_2_19_6 z_2_19_7 z_2_19_8 z_2_19_9 z_2_19_10 z_2_19_11 z_2_19_12 z_2_19_13 z_2_19_14)))
 (= z_0_19_4 $x3498)))
(assert
 (let (($x3500 (and z_2_19_5 z_2_19_6 z_2_19_7 z_2_19_8 z_2_19_9 z_2_19_10 z_2_19_11 z_2_19_12 z_2_19_13 z_2_19_14)))
 (= z_0_19_5 $x3500)))
(assert
 (let (($x3502 (and z_2_19_6 z_2_19_7 z_2_19_8 z_2_19_9 z_2_19_10 z_2_19_11 z_2_19_12 z_2_19_13 z_2_19_14)))
 (= z_0_19_6 $x3502)))
(assert
 (let (($x3504 (and z_2_19_7 z_2_19_8 z_2_19_9 z_2_19_10 z_2_19_11 z_2_19_12 z_2_19_13 z_2_19_14)))
 (= z_0_19_7 $x3504)))
(assert
 (let (($x3504 (and z_2_19_7 z_2_19_8 z_2_19_9 z_2_19_10 z_2_19_11 z_2_19_12 z_2_19_13 z_2_19_14)))
 (= z_0_19_8 $x3504)))
(assert
 (let (($x3504 (and z_2_19_7 z_2_19_8 z_2_19_9 z_2_19_10 z_2_19_11 z_2_19_12 z_2_19_13 z_2_19_14)))
 (= z_0_19_9 $x3504)))
(assert
 (let (($x3504 (and z_2_19_7 z_2_19_8 z_2_19_9 z_2_19_10 z_2_19_11 z_2_19_12 z_2_19_13 z_2_19_14)))
 (= z_0_19_10 $x3504)))
(assert
 (let (($x3504 (and z_2_19_7 z_2_19_8 z_2_19_9 z_2_19_10 z_2_19_11 z_2_19_12 z_2_19_13 z_2_19_14)))
 (= z_0_19_11 $x3504)))
(assert
 (let (($x3504 (and z_2_19_7 z_2_19_8 z_2_19_9 z_2_19_10 z_2_19_11 z_2_19_12 z_2_19_13 z_2_19_14)))
 (= z_0_19_12 $x3504)))
(assert
 (let (($x3504 (and z_2_19_7 z_2_19_8 z_2_19_9 z_2_19_10 z_2_19_11 z_2_19_12 z_2_19_13 z_2_19_14)))
 (= z_0_19_13 $x3504)))
(assert
 (let (($x3504 (and z_2_19_7 z_2_19_8 z_2_19_9 z_2_19_10 z_2_19_11 z_2_19_12 z_2_19_13 z_2_19_14)))
 (= z_0_19_14 $x3504)))
(assert
 (and true true))
(assert
 (=> x_2_p z_2_0_0))
(assert
 (=> x_2_p z_2_1_0))
(assert
 (=> x_2_p z_2_2_0))
(assert
 (=> x_2_p z_2_3_0))
(assert
 (=> x_2_p z_2_4_0))
(assert
 (=> x_2_p z_2_5_0))
(assert
 (=> x_2_p z_2_6_0))
(assert
 (=> x_2_p z_2_7_0))
(assert
 (=> x_2_p z_2_8_0))
(assert
 (=> x_2_p z_2_9_0))
(assert
 (=> x_2_p z_2_10_0))
(assert
 (=> x_2_p z_2_10_1))
(assert
 (=> x_2_p z_2_10_2))
(assert
 (let (($x3560 (not z_2_10_3)))
 (=> x_2_p $x3560)))
(assert
 (=> x_2_p z_2_10_4))
(assert
 (let (($x3565 (not z_2_10_5)))
 (=> x_2_p $x3565)))
(assert
 (=> x_2_p z_2_10_6))
(assert
 (=> x_2_p z_2_10_7))
(assert
 (let (($x3572 (not z_2_10_8)))
 (=> x_2_p $x3572)))
(assert
 (let (($x3575 (not z_2_10_9)))
 (=> x_2_p $x3575)))
(assert
 (=> x_2_p z_2_10_10))
(assert
 (let (($x3580 (not z_2_10_11)))
 (=> x_2_p $x3580)))
(assert
 (let (($x3583 (not z_2_11_0)))
 (=> x_2_p $x3583)))
(assert
 (=> x_2_p z_2_11_1))
(assert
 (=> x_2_p z_2_11_2))
(assert
 (let (($x3590 (not z_2_11_3)))
 (=> x_2_p $x3590)))
(assert
 (=> x_2_p z_2_11_4))
(assert
 (=> x_2_p z_2_11_5))
(assert
 (=> x_2_p z_2_11_6))
(assert
 (let (($x3599 (not z_2_11_7)))
 (=> x_2_p $x3599)))
(assert
 (let (($x3602 (not z_2_11_8)))
 (=> x_2_p $x3602)))
(assert
 (let (($x3605 (not z_2_11_9)))
 (=> x_2_p $x3605)))
(assert
 (=> x_2_p z_2_11_10))
(assert
 (let (($x3610 (not z_2_11_11)))
 (=> x_2_p $x3610)))
(assert
 (=> x_2_p z_2_12_0))
(assert
 (let (($x3615 (not z_2_12_1)))
 (=> x_2_p $x3615)))
(assert
 (let (($x3618 (not z_2_12_2)))
 (=> x_2_p $x3618)))
(assert
 (=> x_2_p z_2_12_3))
(assert
 (=> x_2_p z_2_12_4))
(assert
 (let (($x3625 (not z_2_12_5)))
 (=> x_2_p $x3625)))
(assert
 (let (($x3628 (not z_2_12_6)))
 (=> x_2_p $x3628)))
(assert
 (let (($x3631 (not z_2_12_7)))
 (=> x_2_p $x3631)))
(assert
 (=> x_2_p z_2_12_8))
(assert
 (let (($x3636 (not z_2_12_9)))
 (=> x_2_p $x3636)))
(assert
 (=> x_2_p z_2_12_10))
(assert
 (let (($x3641 (not z_2_12_11)))
 (=> x_2_p $x3641)))
(assert
 (let (($x3644 (not z_2_13_0)))
 (=> x_2_p $x3644)))
(assert
 (let (($x3647 (not z_2_13_1)))
 (=> x_2_p $x3647)))
(assert
 (let (($x3650 (not z_2_13_2)))
 (=> x_2_p $x3650)))
(assert
 (let (($x3653 (not z_2_13_3)))
 (=> x_2_p $x3653)))
(assert
 (let (($x3656 (not z_2_13_4)))
 (=> x_2_p $x3656)))
(assert
 (=> x_2_p z_2_13_5))
(assert
 (=> x_2_p z_2_13_6))
(assert
 (=> x_2_p z_2_13_7))
(assert
 (let (($x3665 (not z_2_13_8)))
 (=> x_2_p $x3665)))
(assert
 (=> x_2_p z_2_13_9))
(assert
 (let (($x3670 (not z_2_13_10)))
 (=> x_2_p $x3670)))
(assert
 (=> x_2_p z_2_13_11))
(assert
 (=> x_2_p z_2_13_12))
(assert
 (let (($x3677 (not z_2_14_0)))
 (=> x_2_p $x3677)))
(assert
 (let (($x3680 (not z_2_14_1)))
 (=> x_2_p $x3680)))
(assert
 (=> x_2_p z_2_14_2))
(assert
 (=> x_2_p z_2_14_3))
(assert
 (=> x_2_p z_2_14_4))
(assert
 (=> x_2_p z_2_14_5))
(assert
 (let (($x3691 (not z_2_14_6)))
 (=> x_2_p $x3691)))
(assert
 (=> x_2_p z_2_14_7))
(assert
 (let (($x3696 (not z_2_14_8)))
 (=> x_2_p $x3696)))
(assert
 (=> x_2_p z_2_14_9))
(assert
 (let (($x3701 (not z_2_14_10)))
 (=> x_2_p $x3701)))
(assert
 (=> x_2_p z_2_14_11))
(assert
 (let (($x3706 (not z_2_14_12)))
 (=> x_2_p $x3706)))
(assert
 (let (($x3709 (not z_2_14_13)))
 (=> x_2_p $x3709)))
(assert
 (=> x_2_p z_2_15_0))
(assert
 (=> x_2_p z_2_15_1))
(assert
 (=> x_2_p z_2_15_2))
(assert
 (=> x_2_p z_2_15_3))
(assert
 (let (($x3720 (not z_2_15_4)))
 (=> x_2_p $x3720)))
(assert
 (let (($x3723 (not z_2_15_5)))
 (=> x_2_p $x3723)))
(assert
 (let (($x3726 (not z_2_15_6)))
 (=> x_2_p $x3726)))
(assert
 (let (($x3729 (not z_2_15_7)))
 (=> x_2_p $x3729)))
(assert
 (=> x_2_p z_2_15_8))
(assert
 (let (($x3734 (not z_2_15_9)))
 (=> x_2_p $x3734)))
(assert
 (let (($x3737 (not z_2_15_10)))
 (=> x_2_p $x3737)))
(assert
 (=> x_2_p z_2_15_11))
(assert
 (let (($x3742 (not z_2_15_12)))
 (=> x_2_p $x3742)))
(assert
 (=> x_2_p z_2_15_13))
(assert
 (=> x_2_p z_2_16_0))
(assert
 (let (($x3749 (not z_2_16_1)))
 (=> x_2_p $x3749)))
(assert
 (=> x_2_p z_2_16_2))
(assert
 (=> x_2_p z_2_16_3))
(assert
 (=> x_2_p z_2_16_4))
(assert
 (=> x_2_p z_2_16_5))
(assert
 (=> x_2_p z_2_16_6))
(assert
 (let (($x3762 (not z_2_16_7)))
 (=> x_2_p $x3762)))
(assert
 (=> x_2_p z_2_16_8))
(assert
 (=> x_2_p z_2_16_9))
(assert
 (=> x_2_p z_2_16_10))
(assert
 (=> x_2_p z_2_16_11))
(assert
 (let (($x3773 (not z_2_16_12)))
 (=> x_2_p $x3773)))
(assert
 (let (($x3776 (not z_2_17_0)))
 (=> x_2_p $x3776)))
(assert
 (let (($x3779 (not z_2_17_1)))
 (=> x_2_p $x3779)))
(assert
 (=> x_2_p z_2_17_2))
(assert
 (=> x_2_p z_2_17_3))
(assert
 (let (($x3786 (not z_2_17_4)))
 (=> x_2_p $x3786)))
(assert
 (=> x_2_p z_2_17_5))
(assert
 (let (($x3791 (not z_2_17_6)))
 (=> x_2_p $x3791)))
(assert
 (let (($x3794 (not z_2_17_7)))
 (=> x_2_p $x3794)))
(assert
 (=> x_2_p z_2_17_8))
(assert
 (=> x_2_p z_2_17_9))
(assert
 (let (($x3801 (not z_2_17_10)))
 (=> x_2_p $x3801)))
(assert
 (let (($x3804 (not z_2_17_11)))
 (=> x_2_p $x3804)))
(assert
 (let (($x3807 (not z_2_17_12)))
 (=> x_2_p $x3807)))
(assert
 (let (($x3810 (not z_2_17_13)))
 (=> x_2_p $x3810)))
(assert
 (=> x_2_p z_2_17_14))
(assert
 (let (($x3815 (not z_2_18_0)))
 (=> x_2_p $x3815)))
(assert
 (let (($x3818 (not z_2_18_1)))
 (=> x_2_p $x3818)))
(assert
 (=> x_2_p z_2_18_2))
(assert
 (=> x_2_p z_2_18_3))
(assert
 (let (($x3825 (not z_2_18_4)))
 (=> x_2_p $x3825)))
(assert
 (let (($x3828 (not z_2_18_5)))
 (=> x_2_p $x3828)))
(assert
 (=> x_2_p z_2_18_6))
(assert
 (=> x_2_p z_2_18_7))
(assert
 (let (($x3835 (not z_2_18_8)))
 (=> x_2_p $x3835)))
(assert
 (let (($x3838 (not z_2_18_9)))
 (=> x_2_p $x3838)))
(assert
 (=> x_2_p z_2_18_10))
(assert
 (=> x_2_p z_2_18_11))
(assert
 (let (($x3845 (not z_2_19_0)))
 (=> x_2_p $x3845)))
(assert
 (=> x_2_p z_2_19_1))
(assert
 (let (($x3850 (not z_2_19_2)))
 (=> x_2_p $x3850)))
(assert
 (let (($x3853 (not z_2_19_3)))
 (=> x_2_p $x3853)))
(assert
 (=> x_2_p z_2_19_4))
(assert
 (let (($x3858 (not z_2_19_5)))
 (=> x_2_p $x3858)))
(assert
 (=> x_2_p z_2_19_6))
(assert
 (let (($x3863 (not z_2_19_7)))
 (=> x_2_p $x3863)))
(assert
 (=> x_2_p z_2_19_8))
(assert
 (let (($x3868 (not z_2_19_9)))
 (=> x_2_p $x3868)))
(assert
 (=> x_2_p z_2_19_10))
(assert
 (let (($x3873 (not z_2_19_11)))
 (=> x_2_p $x3873)))
(assert
 (=> x_2_p z_2_19_12))
(assert
 (=> x_2_p z_2_19_13))
(assert
 (let (($x3880 (not z_2_19_14)))
 (=> x_2_p $x3880)))
(assert
 (or x_2_p))
(assert
 (let (($x3531 (not x_2_->)))
 (let (($x3529 (not x_2_U)))
 (let (($x3527 (not x_2_v)))
 (let (($x3525 (not x_2_&)))
 (let (($x3523 (not x_2_X)))
 (let (($x3521 (not x_2_!)))
 (let (($x3519 (not x_2_F)))
 (let (($x3517 (not x_2_G)))
 (and $x3517 $x3519 $x3521 $x3523 $x3525 $x3527 $x3529 $x3531))))))))))
(check-sat)

